JulietBench/Juliet_Based_Patch_Bench/linux/CWE-189-Numeric-Errors/CVE_2010_4157_f63ae56e4e97fb12053590e41a4fa59e7daa74a4/Resultioc_general_Snippet_patch2NEQ.smt2
; benchmark generated from python API
(set-info :status unknown)
(declare-fun R () (_ BitVec 32))
(declare-fun rdi () (_ BitVec 64))
(declare-fun rsi () (_ BitVec 64))
(assert
 (let (($x54 (and (distinct (_ bv1 32) R) true)))
 (let (($x49 (= (_ bv0 32) R)))
 (let ((?x7 (bvadd rsi rdi)))
 (let (($x9 (= (_ bv0 64) ?x7)))
 (let (($x50 (and $x9 $x49)))
 (let (($x46 (= (_ bv1 32) R)))
 (let (($x34 (and (distinct (_ bv0 64) ?x7) true)))
 (let (($x47 (and $x34 $x46)))
 (let (($x51 (or $x47 $x50)))
 (let (($x53 (not $x51)))
 (let (($x55 (and $x53 $x54)))
 (let (($x52 (and $x51 $x46)))
 (let (($x56 (or $x52 $x55)))
 (not $x56)))))))))))))))
(check-sat)
